#######################################
### Exact MIP solver for the HHCRSP ###
#######################################
-- Instance file: new-instances/HHCRSP_50_10_7_1.2_R_C.txt
-- Max threads: 4
-- Time limit: 999999 seconds
-- Use initial solution: No
Trivial flow violations prevented generating 5501 variables.
Model exported.
Version identifier: 20.1.0.0 | 2020-11-10 | 9bedb6d68
CPXPARAM_Threads                                 4
CPXPARAM_TimeLimit                               999999
Parallel mode: deterministic, using up to 4 threads for concurrent optimization:
 * Starting dual Simplex on 1 thread...
 * Starting Barrier on 3 threads...
Tried aggregator 1 time.
LP Presolve eliminated 1140 rows and 278 columns.
Reduced LP has 5212 rows, 5095 columns, and 39268 nonzeros.
Presolve time = 0.02 sec. (12.08 ticks)
Symmetry aggregator did 3931 additional substitutions.

Iteration log . . .
Iteration:     1   Dual objective     =             0.000000

Dual crossover.
  Dual:  Fixing 76 variables.
       75 DMoves:  Infeasibility  1.22124609e-14  Objective  8.33333333e+01
        0 DMoves:  Infeasibility  1.09912156e-14  Objective  8.33333333e+01
  Dual:  Pushed 4, exchanged 72.
  Primal:  Fixing 28 variables.
       27 PMoves:  Infeasibility  0.00000000e+00  Objective  8.33333333e+01
        0 PMoves:  Infeasibility  0.00000000e+00  Objective  8.33333333e+01
  Primal:  Pushed 4, exchanged 24.

Dual simplex solved model.


Solution status from MIP model:
-- Processing time: 0.04 sec.
-- Memory used: 71.6816 MB
-- Best bound: inf
-- Obj value: 83.3333
-- Gap: inf%
-- Total distance: 250
-- Total tardiness: 0
-- Largest tardiness: 0
